decision_x1=[0,2];
decision_x2=[0,2];
decision_x3=[0,2];
decision_x4=[0,2];
decision_x5=[0,2];
decision_x6=[0,2];
decision_x7=[0,2];
decision_x8=[0,2];
decision_x9=[0,2];
decision_x10=[0,2];
random_y1=[0,2];
random_y2=[0,2];
constraint_x3_x1=[
0,1,0.73|
0,2,0.75|
1,0,8.9|
1,2,1.7|
2,0,3.1|
2,1,7.9|
];
constraint_x4_x2=[
0,1,7.4|
0,2,5.7|
1,0,8|
1,2,1.7|
2,0,8.4|
2,1,1.9|
];
constraint_x4_x3=[
0,1,6.6|
0,2,9|
1,0,7.3|
1,2,4.8|
2,0,2.1|
2,1,0.11|
];
constraint_x5_x1=[
0,1,3.2|
0,2,2.8|
1,0,6.9|
1,2,5.1|
2,0,2.1|
2,1,2.4|
];
constraint_x5_x4=[
0,1,1.4|
0,2,1.2|
1,0,1.9|
1,2,3.2|
2,0,7.6|
2,1,3.5|
];
constraint_x6_x1=[
0,1,4.4|
0,2,6.9|
1,0,8.8|
1,2,4|
2,0,1.8|
2,1,0.2|
];
constraint_x6_x3=[
0,1,1.7|
0,2,1.5|
1,0,1.1|
1,2,6.5|
2,0,4.9|
2,1,3.4|
];
constraint_x7_x1=[
0,1,5.5|
0,2,4.1|
1,0,5.9|
1,2,5.1|
2,0,5.1|
2,1,2.2|
];
constraint_x7_x2=[
0,1,3.7|
0,2,0.63|
1,0,5.5|
1,2,0.71|
2,0,7.3|
2,1,0.76|
];
constraint_x7_x3=[
0,1,8.7|
0,2,4.2|
1,0,3.9|
1,2,7.7|
2,0,3.2|
2,1,1.7|
];
constraint_x7_x4=[
0,1,6.5|
0,2,0.84|
1,0,3.5|
1,2,8|
2,0,4.2|
2,1,3.5|
];
constraint_x7_x6=[
0,1,8.9|
0,2,3.9|
1,0,9.7|
1,2,0.46|
2,0,2.1|
2,1,4.5|
];
constraint_x8_x1=[
0,1,8.3|
0,2,3.1|
1,0,7.4|
1,2,6.8|
2,0,7.5|
2,1,9.8|
];
constraint_x8_x5=[
0,1,0.83|
0,2,7.7|
1,0,7.9|
1,2,6.3|
2,0,4.7|
2,1,1.9|
];
constraint_x9_x1=[
0,1,4.4|
0,2,7.1|
1,0,7.1|
1,2,6.6|
2,0,5.1|
2,1,5.4|
];
constraint_x9_x3=[
0,1,5.4|
0,2,7.1|
1,0,8.7|
1,2,1.1|
2,0,4|
2,1,7.1|
];
constraint_x9_x4=[
0,1,7.4|
0,2,6.8|
1,0,4.8|
1,2,8.4|
2,0,7.3|
2,1,9.9|
];
constraint_x10_x1=[
0,1,4.1|
0,2,6.2|
1,0,2|
1,2,5.1|
2,0,8.8|
2,1,4.1|
];
constraint_x10_x3=[
0,1,4.4|
0,2,7.5|
1,0,1.8|
1,2,8.8|
2,0,9.6|
2,1,9.9|
];
constraint_x10_x4=[
0,1,1.3|
0,2,1.9|
1,0,9.9|
1,2,1.1|
2,0,4.9|
2,1,5.4|
];
constraint_x10_x5=[
0,1,5.6|
0,2,4|
1,0,6.6|
1,2,8.8|
2,0,5.9|
2,1,9.6|
];
constraint_x10_x6=[
0,1,9.2|
0,2,8.5|
1,0,4.2|
1,2,9.6|
2,0,1.5|
2,1,5.5|
];
constraint_x10_x9=[
0,1,2.7|
0,2,0.5|
1,0,2.5|
1,2,2.9|
2,0,6.6|
2,1,0.22|
];
constraint_x1_y1=[
0,0,3.6|
0,1,2.4|
0,2,0.065|
1,0,2.4|
1,1,3.3|
1,2,7.9|
2,0,3.4|
2,1,3.5|
2,2,3.5|
];
constraint_x2_y2=[
0,0,3.2|
0,1,9.7|
0,2,8.9|
1,0,6.2|
1,1,4.2|
1,2,3.5|
2,0,3.3|
2,1,5|
2,2,1|
];
initial_distribution_y1=[0.24,0.41,0.34];
initial_distribution_y2=[0.36,0.57,0.071];
transition_y1=[
0.072,0.53,0.39|
0.15,0.21,0.64|
0.018,0.58,0.4|
];
transition_y2=[
0.46,0.27,0.26|
0.59,0.027,0.38|
0.028,0.38,0.6|
];
